p wcnf 111 131
2500000 -1 2 0
2500000 -1 3 0
2500000 -1 4 0
2500000 -1 5 0
2500000 -1 6 0
2500000 -1 7 0
2500000 -1 8 0
2500000 -1 9 0
2500000 -1 10 0
2500000 -1 11 0
25000 12 -2 -2 0
25000 13 -2 -3 0
25000 14 -2 -4 0
25000 15 -2 -5 0
25000 16 -2 -6 0
25000 17 -2 -7 0
25000 18 -2 -8 0
25000 19 -2 -9 0
25000 20 -2 -10 0
25000 21 -2 -11 0
25000 22 -3 -2 0
25000 23 -3 -3 0
25000 24 -3 -4 0
25000 25 -3 -5 0
25000 26 -3 -6 0
25000 27 -3 -7 0
25000 28 -3 -8 0
25000 29 -3 -9 0
25000 30 -3 -10 0
25000 31 -3 -11 0
25000 32 -4 -2 0
25000 33 -4 -3 0
25000 34 -4 -4 0
25000 35 -4 -5 0
25000 36 -4 -6 0
25000 37 -4 -7 0
25000 38 -4 -8 0
25000 39 -4 -9 0
25000 40 -4 -10 0
25000 41 -4 -11 0
25000 42 -5 -2 0
25000 43 -5 -3 0
25000 44 -5 -4 0
25000 45 -5 -5 0
25000 46 -5 -6 0
25000 47 -5 -7 0
25000 48 -5 -8 0
25000 49 -5 -9 0
25000 50 -5 -10 0
25000 51 -5 -11 0
25000 52 -6 -2 0
25000 53 -6 -3 0
25000 54 -6 -4 0
25000 55 -6 -5 0
25000 56 -6 -6 0
25000 57 -6 -7 0
25000 58 -6 -8 0
25000 59 -6 -9 0
25000 60 -6 -10 0
25000 61 -6 -11 0
25000 62 -7 -2 0
25000 63 -7 -3 0
25000 64 -7 -4 0
25000 65 -7 -5 0
25000 66 -7 -6 0
25000 67 -7 -7 0
25000 68 -7 -8 0
25000 69 -7 -9 0
25000 70 -7 -10 0
25000 71 -7 -11 0
25000 72 -8 -2 0
25000 73 -8 -3 0
25000 74 -8 -4 0
25000 75 -8 -5 0
25000 76 -8 -6 0
25000 77 -8 -7 0
25000 78 -8 -8 0
25000 79 -8 -9 0
25000 80 -8 -10 0
25000 81 -8 -11 0
25000 82 -9 -2 0
25000 83 -9 -3 0
25000 84 -9 -4 0
25000 85 -9 -5 0
25000 86 -9 -6 0
25000 87 -9 -7 0
25000 88 -9 -8 0
25000 89 -9 -9 0
25000 90 -9 -10 0
25000 91 -9 -11 0
25000 92 -10 -2 0
25000 93 -10 -3 0
25000 94 -10 -4 0
25000 95 -10 -5 0
25000 96 -10 -6 0
25000 97 -10 -7 0
25000 98 -10 -8 0
25000 99 -10 -9 0
25000 100 -10 -10 0
25000 101 -10 -11 0
25000 102 -11 -2 0
25000 103 -11 -3 0
25000 104 -11 -4 0
25000 105 -11 -5 0
25000 106 -11 -6 0
25000 107 -11 -7 0
25000 108 -11 -8 0
25000 109 -11 -9 0
25000 110 -11 -10 0
25000 111 -11 -11 0
12500000 1 0
20000 -2 0
20000 -3 0
20000 -4 0
20000 -5 0
20000 -6 0
20000 -7 0
20000 -8 0
20000 -9 0
20000 -10 0
20000 -11 0
1 -12 0
1 -23 0
1 -34 0
1 -45 0
1 -56 0
1 -67 0
1 -78 0
1 -89 0
1 -100 0
1 -111 0
